p cnf 356 2688
1 -217 -153 0
-1 217 -153 0
1 217 -154 0
-1 -217 -154 0
20 -217 -161 0
-20 217 -161 0
20 217 -162 0
-20 -217 -162 0
39 -217 -169 0
-39 217 -169 0
39 217 -170 0
-39 -217 -170 0
58 -217 -177 0
-58 217 -177 0
58 217 -178 0
-58 -217 -178 0
77 -217 -185 0
-77 217 -185 0
77 217 -186 0
-77 -217 -186 0
96 -217 -193 0
-96 217 -193 0
96 217 -194 0
-96 -217 -194 0
115 -217 -201 0
-115 217 -201 0
115 217 -202 0
-115 -217 -202 0
134 -217 -209 0
-134 217 -209 0
134 217 -210 0
-134 -217 -210 0
2 -153 0
2 -154 0
153 -153 0
154 -154 0
21 -161 0
21 -162 0
161 -161 0
162 -162 0
40 -169 0
40 -170 0
169 -169 0
170 -170 0
59 -177 0
59 -178 0
177 -177 0
178 -178 0
78 -185 0
78 -186 0
185 -185 0
186 -186 0
97 -193 0
97 -194 0
193 -193 0
194 -194 0
116 -201 0
116 -202 0
201 -201 0
202 -202 0
135 -209 0
135 -210 0
209 -209 0
210 -210 0
3 -218 -153 0
-3 218 -153 0
3 218 -154 0
-3 -218 -154 0
22 -218 -161 0
-22 218 -161 0
22 218 -162 0
-22 -218 -162 0
41 -218 -169 0
-41 218 -169 0
41 218 -170 0
-41 -218 -170 0
60 -218 -177 0
-60 218 -177 0
60 218 -178 0
-60 -218 -178 0
79 -218 -185 0
-79 218 -185 0
79 218 -186 0
-79 -218 -186 0
98 -218 -193 0
-98 218 -193 0
98 218 -194 0
-98 -218 -194 0
117 -218 -201 0
-117 218 -201 0
117 218 -202 0
-117 -218 -202 0
136 -218 -209 0
-136 218 -209 0
136 218 -210 0
-136 -218 -210 0
4 -219 -153 0
-4 219 -153 0
4 219 -154 0
-4 -219 -154 0
23 -219 -161 0
-23 219 -161 0
23 219 -162 0
-23 -219 -162 0
42 -219 -169 0
-42 219 -169 0
42 219 -170 0
-42 -219 -170 0
61 -219 -177 0
-61 219 -177 0
61 219 -178 0
-61 -219 -178 0
80 -219 -185 0
-80 219 -185 0
80 219 -186 0
-80 -219 -186 0
99 -219 -193 0
-99 219 -193 0
99 219 -194 0
-99 -219 -194 0
118 -219 -201 0
-118 219 -201 0
118 219 -202 0
-118 -219 -202 0
137 -219 -209 0
-137 219 -209 0
137 219 -210 0
-137 -219 -210 0
5 -153 0
5 -154 0
153 -153 0
154 -154 0
24 -161 0
24 -162 0
161 -161 0
162 -162 0
43 -169 0
43 -170 0
169 -169 0
170 -170 0
62 -177 0
62 -178 0
177 -177 0
178 -178 0
81 -185 0
81 -186 0
185 -185 0
186 -186 0
100 -193 0
100 -194 0
193 -193 0
194 -194 0
119 -201 0
119 -202 0
201 -201 0
202 -202 0
138 -209 0
138 -210 0
209 -209 0
210 -210 0
6 -153 0
6 -154 0
153 -153 0
154 -154 0
25 -161 0
25 -162 0
161 -161 0
162 -162 0
44 -169 0
44 -170 0
169 -169 0
170 -170 0
63 -177 0
63 -178 0
177 -177 0
178 -178 0
82 -185 0
82 -186 0
185 -185 0
186 -186 0
101 -193 0
101 -194 0
193 -193 0
194 -194 0
120 -201 0
120 -202 0
201 -201 0
202 -202 0
139 -209 0
139 -210 0
209 -209 0
210 -210 0
7 -220 -153 0
-7 220 -153 0
7 220 -154 0
-7 -220 -154 0
26 -220 -161 0
-26 220 -161 0
26 220 -162 0
-26 -220 -162 0
45 -220 -169 0
-45 220 -169 0
45 220 -170 0
-45 -220 -170 0
64 -220 -177 0
-64 220 -177 0
64 220 -178 0
-64 -220 -178 0
83 -220 -185 0
-83 220 -185 0
83 220 -186 0
-83 -220 -186 0
102 -220 -193 0
-102 220 -193 0
102 220 -194 0
-102 -220 -194 0
121 -220 -201 0
-121 220 -201 0
121 220 -202 0
-121 -220 -202 0
140 -220 -209 0
-140 220 -209 0
140 220 -210 0
-140 -220 -210 0
8 -153 0
8 -154 0
153 -153 0
154 -154 0
27 -161 0
27 -162 0
161 -161 0
162 -162 0
46 -169 0
46 -170 0
169 -169 0
170 -170 0
65 -177 0
65 -178 0
177 -177 0
178 -178 0
84 -185 0
84 -186 0
185 -185 0
186 -186 0
103 -193 0
103 -194 0
193 -193 0
194 -194 0
122 -201 0
122 -202 0
201 -201 0
202 -202 0
141 -209 0
141 -210 0
209 -209 0
210 -210 0
9 -153 0
9 -154 0
153 -153 0
154 -154 0
28 -161 0
28 -162 0
161 -161 0
162 -162 0
47 -169 0
47 -170 0
169 -169 0
170 -170 0
66 -177 0
66 -178 0
177 -177 0
178 -178 0
85 -185 0
85 -186 0
185 -185 0
186 -186 0
104 -193 0
104 -194 0
193 -193 0
194 -194 0
123 -201 0
123 -202 0
201 -201 0
202 -202 0
142 -209 0
142 -210 0
209 -209 0
210 -210 0
10 -153 0
10 -154 0
153 -153 0
154 -154 0
29 -161 0
29 -162 0
161 -161 0
162 -162 0
48 -169 0
48 -170 0
169 -169 0
170 -170 0
67 -177 0
67 -178 0
177 -177 0
178 -178 0
86 -185 0
86 -186 0
185 -185 0
186 -186 0
105 -193 0
105 -194 0
193 -193 0
194 -194 0
124 -201 0
124 -202 0
201 -201 0
202 -202 0
143 -209 0
143 -210 0
209 -209 0
210 -210 0
11 -153 0
11 -154 0
153 -153 0
154 -154 0
30 -161 0
30 -162 0
161 -161 0
162 -162 0
49 -169 0
49 -170 0
169 -169 0
170 -170 0
68 -177 0
68 -178 0
177 -177 0
178 -178 0
87 -185 0
87 -186 0
185 -185 0
186 -186 0
106 -193 0
106 -194 0
193 -193 0
194 -194 0
125 -201 0
125 -202 0
201 -201 0
202 -202 0
144 -209 0
144 -210 0
209 -209 0
210 -210 0
-12 -153 0
-12 -154 0
153 -153 0
154 -154 0
-31 -161 0
-31 -162 0
161 -161 0
162 -162 0
-50 -169 0
-50 -170 0
169 -169 0
170 -170 0
-69 -177 0
-69 -178 0
177 -177 0
178 -178 0
-88 -185 0
-88 -186 0
185 -185 0
186 -186 0
-107 -193 0
-107 -194 0
193 -193 0
194 -194 0
-126 -201 0
-126 -202 0
201 -201 0
202 -202 0
-145 -209 0
-145 -210 0
209 -209 0
210 -210 0
13 -221 -153 0
-13 221 -153 0
13 221 -154 0
-13 -221 -154 0
32 -221 -161 0
-32 221 -161 0
32 221 -162 0
-32 -221 -162 0
51 -221 -169 0
-51 221 -169 0
51 221 -170 0
-51 -221 -170 0
70 -221 -177 0
-70 221 -177 0
70 221 -178 0
-70 -221 -178 0
89 -221 -185 0
-89 221 -185 0
89 221 -186 0
-89 -221 -186 0
108 -221 -193 0
-108 221 -193 0
108 221 -194 0
-108 -221 -194 0
127 -221 -201 0
-127 221 -201 0
127 221 -202 0
-127 -221 -202 0
146 -221 -209 0
-146 221 -209 0
146 221 -210 0
-146 -221 -210 0
14 -222 -153 0
-14 222 -153 0
14 222 -154 0
-14 -222 -154 0
33 -222 -161 0
-33 222 -161 0
33 222 -162 0
-33 -222 -162 0
52 -222 -169 0
-52 222 -169 0
52 222 -170 0
-52 -222 -170 0
71 -222 -177 0
-71 222 -177 0
71 222 -178 0
-71 -222 -178 0
90 -222 -185 0
-90 222 -185 0
90 222 -186 0
-90 -222 -186 0
109 -222 -193 0
-109 222 -193 0
109 222 -194 0
-109 -222 -194 0
128 -222 -201 0
-128 222 -201 0
128 222 -202 0
-128 -222 -202 0
147 -222 -209 0
-147 222 -209 0
147 222 -210 0
-147 -222 -210 0
15 -223 -153 0
-15 223 -153 0
15 223 -154 0
-15 -223 -154 0
34 -223 -161 0
-34 223 -161 0
34 223 -162 0
-34 -223 -162 0
53 -223 -169 0
-53 223 -169 0
53 223 -170 0
-53 -223 -170 0
72 -223 -177 0
-72 223 -177 0
72 223 -178 0
-72 -223 -178 0
91 -223 -185 0
-91 223 -185 0
91 223 -186 0
-91 -223 -186 0
110 -223 -193 0
-110 223 -193 0
110 223 -194 0
-110 -223 -194 0
129 -223 -201 0
-129 223 -201 0
129 223 -202 0
-129 -223 -202 0
148 -223 -209 0
-148 223 -209 0
148 223 -210 0
-148 -223 -210 0
16 -153 0
16 -154 0
153 -153 0
154 -154 0
35 -161 0
35 -162 0
161 -161 0
162 -162 0
54 -169 0
54 -170 0
169 -169 0
170 -170 0
73 -177 0
73 -178 0
177 -177 0
178 -178 0
92 -185 0
92 -186 0
185 -185 0
186 -186 0
111 -193 0
111 -194 0
193 -193 0
194 -194 0
130 -201 0
130 -202 0
201 -201 0
202 -202 0
149 -209 0
149 -210 0
209 -209 0
210 -210 0
17 -153 0
17 -154 0
153 -153 0
154 -154 0
36 -161 0
36 -162 0
161 -161 0
162 -162 0
55 -169 0
55 -170 0
169 -169 0
170 -170 0
74 -177 0
74 -178 0
177 -177 0
178 -178 0
93 -185 0
93 -186 0
185 -185 0
186 -186 0
112 -193 0
112 -194 0
193 -193 0
194 -194 0
131 -201 0
131 -202 0
201 -201 0
202 -202 0
150 -209 0
150 -210 0
209 -209 0
210 -210 0
18 -153 0
18 -154 0
153 -153 0
154 -154 0
37 -161 0
37 -162 0
161 -161 0
162 -162 0
56 -169 0
56 -170 0
169 -169 0
170 -170 0
75 -177 0
75 -178 0
177 -177 0
178 -178 0
94 -185 0
94 -186 0
185 -185 0
186 -186 0
113 -193 0
113 -194 0
193 -193 0
194 -194 0
132 -201 0
132 -202 0
201 -201 0
202 -202 0
151 -209 0
151 -210 0
209 -209 0
210 -210 0
19 -224 -153 0
-19 224 -153 0
19 224 -154 0
-19 -224 -154 0
38 -224 -161 0
-38 224 -161 0
38 224 -162 0
-38 -224 -162 0
57 -224 -169 0
-57 224 -169 0
57 224 -170 0
-57 -224 -170 0
76 -224 -177 0
-76 224 -177 0
76 224 -178 0
-76 -224 -178 0
95 -224 -185 0
-95 224 -185 0
95 224 -186 0
-95 -224 -186 0
114 -224 -193 0
-114 224 -193 0
114 224 -194 0
-114 -224 -194 0
133 -224 -201 0
-133 224 -201 0
133 224 -202 0
-133 -224 -202 0
152 -224 -209 0
-152 224 -209 0
152 224 -210 0
-152 -224 -210 0
-293 153 0
293 -153 0
-294 154 0
293 -154 0
-293 -153 0
-294 -154 0
-301 153 293 0
301 -153 0
301 -293 0
-302 154 294 0
302 -154 0
302 -294 0
-301 -161 0
-302 -162 0
-309 161 301 0
309 -161 0
309 -301 0
-310 162 302 0
310 -162 0
310 -302 0
-309 -169 0
-310 -170 0
-317 169 309 0
317 -169 0
317 -309 0
-318 170 310 0
318 -170 0
318 -310 0
-317 -177 0
-318 -178 0
-325 177 317 0
325 -177 0
325 -317 0
-326 178 318 0
326 -178 0
326 -318 0
-325 -185 0
-326 -186 0
-333 185 325 0
333 -185 0
333 -325 0
-334 186 326 0
334 -186 0
334 -326 0
-333 -193 0
-334 -194 0
-341 193 333 0
341 -193 0
341 -333 0
-342 194 334 0
342 -194 0
342 -334 0
-341 -201 0
-342 -202 0
-349 201 341 0
349 -201 0
349 -341 0
-350 202 342 0
350 -202 0
350 -342 0
-349 -209 0
-350 -210 0
349 0
350 0
1 -155 0
1 -156 0
155 -155 0
156 -156 0
20 -163 0
20 -164 0
163 -163 0
164 -164 0
39 -171 0
39 -172 0
171 -171 0
172 -172 0
58 -179 0
58 -180 0
179 -179 0
180 -180 0
77 -187 0
77 -188 0
187 -187 0
188 -188 0
96 -195 0
96 -196 0
195 -195 0
196 -196 0
115 -203 0
115 -204 0
203 -203 0
204 -204 0
134 -211 0
134 -212 0
211 -211 0
212 -212 0
2 -225 -155 0
-2 225 -155 0
2 225 -156 0
-2 -225 -156 0
21 -225 -163 0
-21 225 -163 0
21 225 -164 0
-21 -225 -164 0
40 -225 -171 0
-40 225 -171 0
40 225 -172 0
-40 -225 -172 0
59 -225 -179 0
-59 225 -179 0
59 225 -180 0
-59 -225 -180 0
78 -225 -187 0
-78 225 -187 0
78 225 -188 0
-78 -225 -188 0
97 -225 -195 0
-97 225 -195 0
97 225 -196 0
-97 -225 -196 0
116 -225 -203 0
-116 225 -203 0
116 225 -204 0
-116 -225 -204 0
135 -225 -211 0
-135 225 -211 0
135 225 -212 0
-135 -225 -212 0
3 -155 0
3 -156 0
155 -155 0
156 -156 0
22 -163 0
22 -164 0
163 -163 0
164 -164 0
41 -171 0
41 -172 0
171 -171 0
172 -172 0
60 -179 0
60 -180 0
179 -179 0
180 -180 0
79 -187 0
79 -188 0
187 -187 0
188 -188 0
98 -195 0
98 -196 0
195 -195 0
196 -196 0
117 -203 0
117 -204 0
203 -203 0
204 -204 0
136 -211 0
136 -212 0
211 -211 0
212 -212 0
4 -155 0
4 -156 0
155 -155 0
156 -156 0
23 -163 0
23 -164 0
163 -163 0
164 -164 0
42 -171 0
42 -172 0
171 -171 0
172 -172 0
61 -179 0
61 -180 0
179 -179 0
180 -180 0
80 -187 0
80 -188 0
187 -187 0
188 -188 0
99 -195 0
99 -196 0
195 -195 0
196 -196 0
118 -203 0
118 -204 0
203 -203 0
204 -204 0
137 -211 0
137 -212 0
211 -211 0
212 -212 0
5 -226 -155 0
-5 226 -155 0
5 226 -156 0
-5 -226 -156 0
24 -226 -163 0
-24 226 -163 0
24 226 -164 0
-24 -226 -164 0
43 -226 -171 0
-43 226 -171 0
43 226 -172 0
-43 -226 -172 0
62 -226 -179 0
-62 226 -179 0
62 226 -180 0
-62 -226 -180 0
81 -226 -187 0
-81 226 -187 0
81 226 -188 0
-81 -226 -188 0
100 -226 -195 0
-100 226 -195 0
100 226 -196 0
-100 -226 -196 0
119 -226 -203 0
-119 226 -203 0
119 226 -204 0
-119 -226 -204 0
138 -226 -211 0
-138 226 -211 0
138 226 -212 0
-138 -226 -212 0
6 -227 -155 0
-6 227 -155 0
6 227 -156 0
-6 -227 -156 0
25 -227 -163 0
-25 227 -163 0
25 227 -164 0
-25 -227 -164 0
44 -227 -171 0
-44 227 -171 0
44 227 -172 0
-44 -227 -172 0
63 -227 -179 0
-63 227 -179 0
63 227 -180 0
-63 -227 -180 0
82 -227 -187 0
-82 227 -187 0
82 227 -188 0
-82 -227 -188 0
101 -227 -195 0
-101 227 -195 0
101 227 -196 0
-101 -227 -196 0
120 -227 -203 0
-120 227 -203 0
120 227 -204 0
-120 -227 -204 0
139 -227 -211 0
-139 227 -211 0
139 227 -212 0
-139 -227 -212 0
7 -228 -155 0
-7 228 -155 0
7 228 -156 0
-7 -228 -156 0
26 -228 -163 0
-26 228 -163 0
26 228 -164 0
-26 -228 -164 0
45 -228 -171 0
-45 228 -171 0
45 228 -172 0
-45 -228 -172 0
64 -228 -179 0
-64 228 -179 0
64 228 -180 0
-64 -228 -180 0
83 -228 -187 0
-83 228 -187 0
83 228 -188 0
-83 -228 -188 0
102 -228 -195 0
-102 228 -195 0
102 228 -196 0
-102 -228 -196 0
121 -228 -203 0
-121 228 -203 0
121 228 -204 0
-121 -228 -204 0
140 -228 -211 0
-140 228 -211 0
140 228 -212 0
-140 -228 -212 0
8 -155 0
8 -156 0
155 -155 0
156 -156 0
27 -163 0
27 -164 0
163 -163 0
164 -164 0
46 -171 0
46 -172 0
171 -171 0
172 -172 0
65 -179 0
65 -180 0
179 -179 0
180 -180 0
84 -187 0
84 -188 0
187 -187 0
188 -188 0
103 -195 0
103 -196 0
195 -195 0
196 -196 0
122 -203 0
122 -204 0
203 -203 0
204 -204 0
141 -211 0
141 -212 0
211 -211 0
212 -212 0
9 -229 -155 0
-9 229 -155 0
9 229 -156 0
-9 -229 -156 0
28 -229 -163 0
-28 229 -163 0
28 229 -164 0
-28 -229 -164 0
47 -229 -171 0
-47 229 -171 0
47 229 -172 0
-47 -229 -172 0
66 -229 -179 0
-66 229 -179 0
66 229 -180 0
-66 -229 -180 0
85 -229 -187 0
-85 229 -187 0
85 229 -188 0
-85 -229 -188 0
104 -229 -195 0
-104 229 -195 0
104 229 -196 0
-104 -229 -196 0
123 -229 -203 0
-123 229 -203 0
123 229 -204 0
-123 -229 -204 0
142 -229 -211 0
-142 229 -211 0
142 229 -212 0
-142 -229 -212 0
10 -230 -155 0
-10 230 -155 0
10 230 -156 0
-10 -230 -156 0
29 -230 -163 0
-29 230 -163 0
29 230 -164 0
-29 -230 -164 0
48 -230 -171 0
-48 230 -171 0
48 230 -172 0
-48 -230 -172 0
67 -230 -179 0
-67 230 -179 0
67 230 -180 0
-67 -230 -180 0
86 -230 -187 0
-86 230 -187 0
86 230 -188 0
-86 -230 -188 0
105 -230 -195 0
-105 230 -195 0
105 230 -196 0
-105 -230 -196 0
124 -230 -203 0
-124 230 -203 0
124 230 -204 0
-124 -230 -204 0
143 -230 -211 0
-143 230 -211 0
143 230 -212 0
-143 -230 -212 0
11 -231 -155 0
-11 231 -155 0
11 231 -156 0
-11 -231 -156 0
30 -231 -163 0
-30 231 -163 0
30 231 -164 0
-30 -231 -164 0
49 -231 -171 0
-49 231 -171 0
49 231 -172 0
-49 -231 -172 0
68 -231 -179 0
-68 231 -179 0
68 231 -180 0
-68 -231 -180 0
87 -231 -187 0
-87 231 -187 0
87 231 -188 0
-87 -231 -188 0
106 -231 -195 0
-106 231 -195 0
106 231 -196 0
-106 -231 -196 0
125 -231 -203 0
-125 231 -203 0
125 231 -204 0
-125 -231 -204 0
144 -231 -211 0
-144 231 -211 0
144 231 -212 0
-144 -231 -212 0
12 -232 -155 0
-12 232 -155 0
12 232 -156 0
-12 -232 -156 0
31 -232 -163 0
-31 232 -163 0
31 232 -164 0
-31 -232 -164 0
50 -232 -171 0
-50 232 -171 0
50 232 -172 0
-50 -232 -172 0
69 -232 -179 0
-69 232 -179 0
69 232 -180 0
-69 -232 -180 0
88 -232 -187 0
-88 232 -187 0
88 232 -188 0
-88 -232 -188 0
107 -232 -195 0
-107 232 -195 0
107 232 -196 0
-107 -232 -196 0
126 -232 -203 0
-126 232 -203 0
126 232 -204 0
-126 -232 -204 0
145 -232 -211 0
-145 232 -211 0
145 232 -212 0
-145 -232 -212 0
13 -233 -155 0
-13 233 -155 0
13 233 -156 0
-13 -233 -156 0
32 -233 -163 0
-32 233 -163 0
32 233 -164 0
-32 -233 -164 0
51 -233 -171 0
-51 233 -171 0
51 233 -172 0
-51 -233 -172 0
70 -233 -179 0
-70 233 -179 0
70 233 -180 0
-70 -233 -180 0
89 -233 -187 0
-89 233 -187 0
89 233 -188 0
-89 -233 -188 0
108 -233 -195 0
-108 233 -195 0
108 233 -196 0
-108 -233 -196 0
127 -233 -203 0
-127 233 -203 0
127 233 -204 0
-127 -233 -204 0
146 -233 -211 0
-146 233 -211 0
146 233 -212 0
-146 -233 -212 0
14 -155 0
14 -156 0
155 -155 0
156 -156 0
33 -163 0
33 -164 0
163 -163 0
164 -164 0
52 -171 0
52 -172 0
171 -171 0
172 -172 0
71 -179 0
71 -180 0
179 -179 0
180 -180 0
90 -187 0
90 -188 0
187 -187 0
188 -188 0
109 -195 0
109 -196 0
195 -195 0
196 -196 0
128 -203 0
128 -204 0
203 -203 0
204 -204 0
147 -211 0
147 -212 0
211 -211 0
212 -212 0
15 -234 -155 0
-15 234 -155 0
15 234 -156 0
-15 -234 -156 0
34 -234 -163 0
-34 234 -163 0
34 234 -164 0
-34 -234 -164 0
53 -234 -171 0
-53 234 -171 0
53 234 -172 0
-53 -234 -172 0
72 -234 -179 0
-72 234 -179 0
72 234 -180 0
-72 -234 -180 0
91 -234 -187 0
-91 234 -187 0
91 234 -188 0
-91 -234 -188 0
110 -234 -195 0
-110 234 -195 0
110 234 -196 0
-110 -234 -196 0
129 -234 -203 0
-129 234 -203 0
129 234 -204 0
-129 -234 -204 0
148 -234 -211 0
-148 234 -211 0
148 234 -212 0
-148 -234 -212 0
16 -155 0
16 -156 0
155 -155 0
156 -156 0
35 -163 0
35 -164 0
163 -163 0
164 -164 0
54 -171 0
54 -172 0
171 -171 0
172 -172 0
73 -179 0
73 -180 0
179 -179 0
180 -180 0
92 -187 0
92 -188 0
187 -187 0
188 -188 0
111 -195 0
111 -196 0
195 -195 0
196 -196 0
130 -203 0
130 -204 0
203 -203 0
204 -204 0
149 -211 0
149 -212 0
211 -211 0
212 -212 0
17 -235 -155 0
-17 235 -155 0
17 235 -156 0
-17 -235 -156 0
36 -235 -163 0
-36 235 -163 0
36 235 -164 0
-36 -235 -164 0
55 -235 -171 0
-55 235 -171 0
55 235 -172 0
-55 -235 -172 0
74 -235 -179 0
-74 235 -179 0
74 235 -180 0
-74 -235 -180 0
93 -235 -187 0
-93 235 -187 0
93 235 -188 0
-93 -235 -188 0
112 -235 -195 0
-112 235 -195 0
112 235 -196 0
-112 -235 -196 0
131 -235 -203 0
-131 235 -203 0
131 235 -204 0
-131 -235 -204 0
150 -235 -211 0
-150 235 -211 0
150 235 -212 0
-150 -235 -212 0
18 -155 0
18 -156 0
155 -155 0
156 -156 0
37 -163 0
37 -164 0
163 -163 0
164 -164 0
56 -171 0
56 -172 0
171 -171 0
172 -172 0
75 -179 0
75 -180 0
179 -179 0
180 -180 0
94 -187 0
94 -188 0
187 -187 0
188 -188 0
113 -195 0
113 -196 0
195 -195 0
196 -196 0
132 -203 0
132 -204 0
203 -203 0
204 -204 0
151 -211 0
151 -212 0
211 -211 0
212 -212 0
19 -155 0
19 -156 0
155 -155 0
156 -156 0
38 -163 0
38 -164 0
163 -163 0
164 -164 0
57 -171 0
57 -172 0
171 -171 0
172 -172 0
76 -179 0
76 -180 0
179 -179 0
180 -180 0
95 -187 0
95 -188 0
187 -187 0
188 -188 0
114 -195 0
114 -196 0
195 -195 0
196 -196 0
133 -203 0
133 -204 0
203 -203 0
204 -204 0
152 -211 0
152 -212 0
211 -211 0
212 -212 0
-295 155 0
295 -155 0
-296 156 0
295 -156 0
-295 -155 0
-296 -156 0
-303 155 295 0
303 -155 0
303 -295 0
-304 156 296 0
304 -156 0
304 -296 0
-303 -163 0
-304 -164 0
-311 163 303 0
311 -163 0
311 -303 0
-312 164 304 0
312 -164 0
312 -304 0
-311 -171 0
-312 -172 0
-319 171 311 0
319 -171 0
319 -311 0
-320 172 312 0
320 -172 0
320 -312 0
-319 -179 0
-320 -180 0
-327 179 319 0
327 -179 0
327 -319 0
-328 180 320 0
328 -180 0
328 -320 0
-327 -187 0
-328 -188 0
-335 187 327 0
335 -187 0
335 -327 0
-336 188 328 0
336 -188 0
336 -328 0
-335 -195 0
-336 -196 0
-343 195 335 0
343 -195 0
343 -335 0
-344 196 336 0
344 -196 0
344 -336 0
-343 -203 0
-344 -204 0
-351 203 343 0
351 -203 0
351 -343 0
-352 204 344 0
352 -204 0
352 -344 0
-351 -211 0
-352 -212 0
351 0
352 0
1 -157 0
1 -158 0
157 -157 0
158 -158 0
20 -165 0
20 -166 0
165 -165 0
166 -166 0
39 -173 0
39 -174 0
173 -173 0
174 -174 0
58 -181 0
58 -182 0
181 -181 0
182 -182 0
77 -189 0
77 -190 0
189 -189 0
190 -190 0
96 -197 0
96 -198 0
197 -197 0
198 -198 0
115 -205 0
115 -206 0
205 -205 0
206 -206 0
134 -213 0
134 -214 0
213 -213 0
214 -214 0
2 -236 -157 0
-2 236 -157 0
2 236 -158 0
-2 -236 -158 0
21 -236 -165 0
-21 236 -165 0
21 236 -166 0
-21 -236 -166 0
40 -236 -173 0
-40 236 -173 0
40 236 -174 0
-40 -236 -174 0
59 -236 -181 0
-59 236 -181 0
59 236 -182 0
-59 -236 -182 0
78 -236 -189 0
-78 236 -189 0
78 236 -190 0
-78 -236 -190 0
97 -236 -197 0
-97 236 -197 0
97 236 -198 0
-97 -236 -198 0
116 -236 -205 0
-116 236 -205 0
116 236 -206 0
-116 -236 -206 0
135 -236 -213 0
-135 236 -213 0
135 236 -214 0
-135 -236 -214 0
3 -157 0
3 -158 0
157 -157 0
158 -158 0
22 -165 0
22 -166 0
165 -165 0
166 -166 0
41 -173 0
41 -174 0
173 -173 0
174 -174 0
60 -181 0
60 -182 0
181 -181 0
182 -182 0
79 -189 0
79 -190 0
189 -189 0
190 -190 0
98 -197 0
98 -198 0
197 -197 0
198 -198 0
117 -205 0
117 -206 0
205 -205 0
206 -206 0
136 -213 0
136 -214 0
213 -213 0
214 -214 0
4 -157 0
4 -158 0
157 -157 0
158 -158 0
23 -165 0
23 -166 0
165 -165 0
166 -166 0
42 -173 0
42 -174 0
173 -173 0
174 -174 0
61 -181 0
61 -182 0
181 -181 0
182 -182 0
80 -189 0
80 -190 0
189 -189 0
190 -190 0
99 -197 0
99 -198 0
197 -197 0
198 -198 0
118 -205 0
118 -206 0
205 -205 0
206 -206 0
137 -213 0
137 -214 0
213 -213 0
214 -214 0
5 -237 -157 0
-5 237 -157 0
5 237 -158 0
-5 -237 -158 0
24 -237 -165 0
-24 237 -165 0
24 237 -166 0
-24 -237 -166 0
43 -237 -173 0
-43 237 -173 0
43 237 -174 0
-43 -237 -174 0
62 -237 -181 0
-62 237 -181 0
62 237 -182 0
-62 -237 -182 0
81 -237 -189 0
-81 237 -189 0
81 237 -190 0
-81 -237 -190 0
100 -237 -197 0
-100 237 -197 0
100 237 -198 0
-100 -237 -198 0
119 -237 -205 0
-119 237 -205 0
119 237 -206 0
-119 -237 -206 0
138 -237 -213 0
-138 237 -213 0
138 237 -214 0
-138 -237 -214 0
6 -238 -157 0
-6 238 -157 0
6 238 -158 0
-6 -238 -158 0
25 -238 -165 0
-25 238 -165 0
25 238 -166 0
-25 -238 -166 0
44 -238 -173 0
-44 238 -173 0
44 238 -174 0
-44 -238 -174 0
63 -238 -181 0
-63 238 -181 0
63 238 -182 0
-63 -238 -182 0
82 -238 -189 0
-82 238 -189 0
82 238 -190 0
-82 -238 -190 0
101 -238 -197 0
-101 238 -197 0
101 238 -198 0
-101 -238 -198 0
120 -238 -205 0
-120 238 -205 0
120 238 -206 0
-120 -238 -206 0
139 -238 -213 0
-139 238 -213 0
139 238 -214 0
-139 -238 -214 0
7 -157 0
7 -158 0
157 -157 0
158 -158 0
26 -165 0
26 -166 0
165 -165 0
166 -166 0
45 -173 0
45 -174 0
173 -173 0
174 -174 0
64 -181 0
64 -182 0
181 -181 0
182 -182 0
83 -189 0
83 -190 0
189 -189 0
190 -190 0
102 -197 0
102 -198 0
197 -197 0
198 -198 0
121 -205 0
121 -206 0
205 -205 0
206 -206 0
140 -213 0
140 -214 0
213 -213 0
214 -214 0
8 -157 0
8 -158 0
157 -157 0
158 -158 0
27 -165 0
27 -166 0
165 -165 0
166 -166 0
46 -173 0
46 -174 0
173 -173 0
174 -174 0
65 -181 0
65 -182 0
181 -181 0
182 -182 0
84 -189 0
84 -190 0
189 -189 0
190 -190 0
103 -197 0
103 -198 0
197 -197 0
198 -198 0
122 -205 0
122 -206 0
205 -205 0
206 -206 0
141 -213 0
141 -214 0
213 -213 0
214 -214 0
9 -157 0
9 -158 0
157 -157 0
158 -158 0
28 -165 0
28 -166 0
165 -165 0
166 -166 0
47 -173 0
47 -174 0
173 -173 0
174 -174 0
66 -181 0
66 -182 0
181 -181 0
182 -182 0
85 -189 0
85 -190 0
189 -189 0
190 -190 0
104 -197 0
104 -198 0
197 -197 0
198 -198 0
123 -205 0
123 -206 0
205 -205 0
206 -206 0
142 -213 0
142 -214 0
213 -213 0
214 -214 0
10 -157 0
10 -158 0
157 -157 0
158 -158 0
29 -165 0
29 -166 0
165 -165 0
166 -166 0
48 -173 0
48 -174 0
173 -173 0
174 -174 0
67 -181 0
67 -182 0
181 -181 0
182 -182 0
86 -189 0
86 -190 0
189 -189 0
190 -190 0
105 -197 0
105 -198 0
197 -197 0
198 -198 0
124 -205 0
124 -206 0
205 -205 0
206 -206 0
143 -213 0
143 -214 0
213 -213 0
214 -214 0
11 -157 0
11 -158 0
157 -157 0
158 -158 0
30 -165 0
30 -166 0
165 -165 0
166 -166 0
49 -173 0
49 -174 0
173 -173 0
174 -174 0
68 -181 0
68 -182 0
181 -181 0
182 -182 0
87 -189 0
87 -190 0
189 -189 0
190 -190 0
106 -197 0
106 -198 0
197 -197 0
198 -198 0
125 -205 0
125 -206 0
205 -205 0
206 -206 0
144 -213 0
144 -214 0
213 -213 0
214 -214 0
12 -239 -157 0
-12 239 -157 0
12 239 -158 0
-12 -239 -158 0
31 -239 -165 0
-31 239 -165 0
31 239 -166 0
-31 -239 -166 0
50 -239 -173 0
-50 239 -173 0
50 239 -174 0
-50 -239 -174 0
69 -239 -181 0
-69 239 -181 0
69 239 -182 0
-69 -239 -182 0
88 -239 -189 0
-88 239 -189 0
88 239 -190 0
-88 -239 -190 0
107 -239 -197 0
-107 239 -197 0
107 239 -198 0
-107 -239 -198 0
126 -239 -205 0
-126 239 -205 0
126 239 -206 0
-126 -239 -206 0
145 -239 -213 0
-145 239 -213 0
145 239 -214 0
-145 -239 -214 0
-13 -157 0
-13 -158 0
157 -157 0
158 -158 0
-32 -165 0
-32 -166 0
165 -165 0
166 -166 0
-51 -173 0
-51 -174 0
173 -173 0
174 -174 0
-70 -181 0
-70 -182 0
181 -181 0
182 -182 0
-89 -189 0
-89 -190 0
189 -189 0
190 -190 0
-108 -197 0
-108 -198 0
197 -197 0
198 -198 0
-127 -205 0
-127 -206 0
205 -205 0
206 -206 0
-146 -213 0
-146 -214 0
213 -213 0
214 -214 0
14 -157 0
14 -158 0
157 -157 0
158 -158 0
33 -165 0
33 -166 0
165 -165 0
166 -166 0
52 -173 0
52 -174 0
173 -173 0
174 -174 0
71 -181 0
71 -182 0
181 -181 0
182 -182 0
90 -189 0
90 -190 0
189 -189 0
190 -190 0
109 -197 0
109 -198 0
197 -197 0
198 -198 0
128 -205 0
128 -206 0
205 -205 0
206 -206 0
147 -213 0
147 -214 0
213 -213 0
214 -214 0
-15 -157 0
-15 -158 0
157 -157 0
158 -158 0
-34 -165 0
-34 -166 0
165 -165 0
166 -166 0
-53 -173 0
-53 -174 0
173 -173 0
174 -174 0
-72 -181 0
-72 -182 0
181 -181 0
182 -182 0
-91 -189 0
-91 -190 0
189 -189 0
190 -190 0
-110 -197 0
-110 -198 0
197 -197 0
198 -198 0
-129 -205 0
-129 -206 0
205 -205 0
206 -206 0
-148 -213 0
-148 -214 0
213 -213 0
214 -214 0
16 -157 0
16 -158 0
157 -157 0
158 -158 0
35 -165 0
35 -166 0
165 -165 0
166 -166 0
54 -173 0
54 -174 0
173 -173 0
174 -174 0
73 -181 0
73 -182 0
181 -181 0
182 -182 0
92 -189 0
92 -190 0
189 -189 0
190 -190 0
111 -197 0
111 -198 0
197 -197 0
198 -198 0
130 -205 0
130 -206 0
205 -205 0
206 -206 0
149 -213 0
149 -214 0
213 -213 0
214 -214 0
17 -157 0
17 -158 0
157 -157 0
158 -158 0
36 -165 0
36 -166 0
165 -165 0
166 -166 0
55 -173 0
55 -174 0
173 -173 0
174 -174 0
74 -181 0
74 -182 0
181 -181 0
182 -182 0
93 -189 0
93 -190 0
189 -189 0
190 -190 0
112 -197 0
112 -198 0
197 -197 0
198 -198 0
131 -205 0
131 -206 0
205 -205 0
206 -206 0
150 -213 0
150 -214 0
213 -213 0
214 -214 0
18 -157 0
18 -158 0
157 -157 0
158 -158 0
37 -165 0
37 -166 0
165 -165 0
166 -166 0
56 -173 0
56 -174 0
173 -173 0
174 -174 0
75 -181 0
75 -182 0
181 -181 0
182 -182 0
94 -189 0
94 -190 0
189 -189 0
190 -190 0
113 -197 0
113 -198 0
197 -197 0
198 -198 0
132 -205 0
132 -206 0
205 -205 0
206 -206 0
151 -213 0
151 -214 0
213 -213 0
214 -214 0
19 -157 0
19 -158 0
157 -157 0
158 -158 0
38 -165 0
38 -166 0
165 -165 0
166 -166 0
57 -173 0
57 -174 0
173 -173 0
174 -174 0
76 -181 0
76 -182 0
181 -181 0
182 -182 0
95 -189 0
95 -190 0
189 -189 0
190 -190 0
114 -197 0
114 -198 0
197 -197 0
198 -198 0
133 -205 0
133 -206 0
205 -205 0
206 -206 0
152 -213 0
152 -214 0
213 -213 0
214 -214 0
-297 157 0
297 -157 0
-298 158 0
297 -158 0
-297 -157 0
-298 -158 0
-305 157 297 0
305 -157 0
305 -297 0
-306 158 298 0
306 -158 0
306 -298 0
-305 -165 0
-306 -166 0
-313 165 305 0
313 -165 0
313 -305 0
-314 166 306 0
314 -166 0
314 -306 0
-313 -173 0
-314 -174 0
-321 173 313 0
321 -173 0
321 -313 0
-322 174 314 0
322 -174 0
322 -314 0
-321 -181 0
-322 -182 0
-329 181 321 0
329 -181 0
329 -321 0
-330 182 322 0
330 -182 0
330 -322 0
-329 -189 0
-330 -190 0
-337 189 329 0
337 -189 0
337 -329 0
-338 190 330 0
338 -190 0
338 -330 0
-337 -197 0
-338 -198 0
-345 197 337 0
345 -197 0
345 -337 0
-346 198 338 0
346 -198 0
346 -338 0
-345 -205 0
-346 -206 0
-353 205 345 0
353 -205 0
353 -345 0
-354 206 346 0
354 -206 0
354 -346 0
-353 -213 0
-354 -214 0
353 0
354 0
1 -159 0
1 -160 0
159 -159 0
160 -160 0
20 -167 0
20 -168 0
167 -167 0
168 -168 0
39 -175 0
39 -176 0
175 -175 0
176 -176 0
58 -183 0
58 -184 0
183 -183 0
184 -184 0
77 -191 0
77 -192 0
191 -191 0
192 -192 0
96 -199 0
96 -200 0
199 -199 0
200 -200 0
115 -207 0
115 -208 0
207 -207 0
208 -208 0
134 -215 0
134 -216 0
215 -215 0
216 -216 0
-2 -159 0
-2 -160 0
159 -159 0
160 -160 0
-21 -167 0
-21 -168 0
167 -167 0
168 -168 0
-40 -175 0
-40 -176 0
175 -175 0
176 -176 0
-59 -183 0
-59 -184 0
183 -183 0
184 -184 0
-78 -191 0
-78 -192 0
191 -191 0
192 -192 0
-97 -199 0
-97 -200 0
199 -199 0
200 -200 0
-116 -207 0
-116 -208 0
207 -207 0
208 -208 0
-135 -215 0
-135 -216 0
215 -215 0
216 -216 0
3 -159 0
3 -160 0
159 -159 0
160 -160 0
22 -167 0
22 -168 0
167 -167 0
168 -168 0
41 -175 0
41 -176 0
175 -175 0
176 -176 0
60 -183 0
60 -184 0
183 -183 0
184 -184 0
79 -191 0
79 -192 0
191 -191 0
192 -192 0
98 -199 0
98 -200 0
199 -199 0
200 -200 0
117 -207 0
117 -208 0
207 -207 0
208 -208 0
136 -215 0
136 -216 0
215 -215 0
216 -216 0
4 -159 0
4 -160 0
159 -159 0
160 -160 0
23 -167 0
23 -168 0
167 -167 0
168 -168 0
42 -175 0
42 -176 0
175 -175 0
176 -176 0
61 -183 0
61 -184 0
183 -183 0
184 -184 0
80 -191 0
80 -192 0
191 -191 0
192 -192 0
99 -199 0
99 -200 0
199 -199 0
200 -200 0
118 -207 0
118 -208 0
207 -207 0
208 -208 0
137 -215 0
137 -216 0
215 -215 0
216 -216 0
-5 -159 0
-5 -160 0
159 -159 0
160 -160 0
-24 -167 0
-24 -168 0
167 -167 0
168 -168 0
-43 -175 0
-43 -176 0
175 -175 0
176 -176 0
-62 -183 0
-62 -184 0
183 -183 0
184 -184 0
-81 -191 0
-81 -192 0
191 -191 0
192 -192 0
-100 -199 0
-100 -200 0
199 -199 0
200 -200 0
-119 -207 0
-119 -208 0
207 -207 0
208 -208 0
-138 -215 0
-138 -216 0
215 -215 0
216 -216 0
-6 -159 0
-6 -160 0
159 -159 0
160 -160 0
-25 -167 0
-25 -168 0
167 -167 0
168 -168 0
-44 -175 0
-44 -176 0
175 -175 0
176 -176 0
-63 -183 0
-63 -184 0
183 -183 0
184 -184 0
-82 -191 0
-82 -192 0
191 -191 0
192 -192 0
-101 -199 0
-101 -200 0
199 -199 0
200 -200 0
-120 -207 0
-120 -208 0
207 -207 0
208 -208 0
-139 -215 0
-139 -216 0
215 -215 0
216 -216 0
7 -159 0
7 -160 0
159 -159 0
160 -160 0
26 -167 0
26 -168 0
167 -167 0
168 -168 0
45 -175 0
45 -176 0
175 -175 0
176 -176 0
64 -183 0
64 -184 0
183 -183 0
184 -184 0
83 -191 0
83 -192 0
191 -191 0
192 -192 0
102 -199 0
102 -200 0
199 -199 0
200 -200 0
121 -207 0
121 -208 0
207 -207 0
208 -208 0
140 -215 0
140 -216 0
215 -215 0
216 -216 0
8 -159 0
8 -160 0
159 -159 0
160 -160 0
27 -167 0
27 -168 0
167 -167 0
168 -168 0
46 -175 0
46 -176 0
175 -175 0
176 -176 0
65 -183 0
65 -184 0
183 -183 0
184 -184 0
84 -191 0
84 -192 0
191 -191 0
192 -192 0
103 -199 0
103 -200 0
199 -199 0
200 -200 0
122 -207 0
122 -208 0
207 -207 0
208 -208 0
141 -215 0
141 -216 0
215 -215 0
216 -216 0
9 -159 0
9 -160 0
159 -159 0
160 -160 0
28 -167 0
28 -168 0
167 -167 0
168 -168 0
47 -175 0
47 -176 0
175 -175 0
176 -176 0
66 -183 0
66 -184 0
183 -183 0
184 -184 0
85 -191 0
85 -192 0
191 -191 0
192 -192 0
104 -199 0
104 -200 0
199 -199 0
200 -200 0
123 -207 0
123 -208 0
207 -207 0
208 -208 0
142 -215 0
142 -216 0
215 -215 0
216 -216 0
10 -159 0
10 -160 0
159 -159 0
160 -160 0
29 -167 0
29 -168 0
167 -167 0
168 -168 0
48 -175 0
48 -176 0
175 -175 0
176 -176 0
67 -183 0
67 -184 0
183 -183 0
184 -184 0
86 -191 0
86 -192 0
191 -191 0
192 -192 0
105 -199 0
105 -200 0
199 -199 0
200 -200 0
124 -207 0
124 -208 0
207 -207 0
208 -208 0
143 -215 0
143 -216 0
215 -215 0
216 -216 0
11 -159 0
11 -160 0
159 -159 0
160 -160 0
30 -167 0
30 -168 0
167 -167 0
168 -168 0
49 -175 0
49 -176 0
175 -175 0
176 -176 0
68 -183 0
68 -184 0
183 -183 0
184 -184 0
87 -191 0
87 -192 0
191 -191 0
192 -192 0
106 -199 0
106 -200 0
199 -199 0
200 -200 0
125 -207 0
125 -208 0
207 -207 0
208 -208 0
144 -215 0
144 -216 0
215 -215 0
216 -216 0
-12 -159 0
-12 -160 0
159 -159 0
160 -160 0
-31 -167 0
-31 -168 0
167 -167 0
168 -168 0
-50 -175 0
-50 -176 0
175 -175 0
176 -176 0
-69 -183 0
-69 -184 0
183 -183 0
184 -184 0
-88 -191 0
-88 -192 0
191 -191 0
192 -192 0
-107 -199 0
-107 -200 0
199 -199 0
200 -200 0
-126 -207 0
-126 -208 0
207 -207 0
208 -208 0
-145 -215 0
-145 -216 0
215 -215 0
216 -216 0
-13 -159 0
-13 -160 0
159 -159 0
160 -160 0
-32 -167 0
-32 -168 0
167 -167 0
168 -168 0
-51 -175 0
-51 -176 0
175 -175 0
176 -176 0
-70 -183 0
-70 -184 0
183 -183 0
184 -184 0
-89 -191 0
-89 -192 0
191 -191 0
192 -192 0
-108 -199 0
-108 -200 0
199 -199 0
200 -200 0
-127 -207 0
-127 -208 0
207 -207 0
208 -208 0
-146 -215 0
-146 -216 0
215 -215 0
216 -216 0
14 -159 0
14 -160 0
159 -159 0
160 -160 0
33 -167 0
33 -168 0
167 -167 0
168 -168 0
52 -175 0
52 -176 0
175 -175 0
176 -176 0
71 -183 0
71 -184 0
183 -183 0
184 -184 0
90 -191 0
90 -192 0
191 -191 0
192 -192 0
109 -199 0
109 -200 0
199 -199 0
200 -200 0
128 -207 0
128 -208 0
207 -207 0
208 -208 0
147 -215 0
147 -216 0
215 -215 0
216 -216 0
-15 -159 0
-15 -160 0
159 -159 0
160 -160 0
-34 -167 0
-34 -168 0
167 -167 0
168 -168 0
-53 -175 0
-53 -176 0
175 -175 0
176 -176 0
-72 -183 0
-72 -184 0
183 -183 0
184 -184 0
-91 -191 0
-91 -192 0
191 -191 0
192 -192 0
-110 -199 0
-110 -200 0
199 -199 0
200 -200 0
-129 -207 0
-129 -208 0
207 -207 0
208 -208 0
-148 -215 0
-148 -216 0
215 -215 0
216 -216 0
16 -159 0
16 -160 0
159 -159 0
160 -160 0
35 -167 0
35 -168 0
167 -167 0
168 -168 0
54 -175 0
54 -176 0
175 -175 0
176 -176 0
73 -183 0
73 -184 0
183 -183 0
184 -184 0
92 -191 0
92 -192 0
191 -191 0
192 -192 0
111 -199 0
111 -200 0
199 -199 0
200 -200 0
130 -207 0
130 -208 0
207 -207 0
208 -208 0
149 -215 0
149 -216 0
215 -215 0
216 -216 0
17 -159 0
17 -160 0
159 -159 0
160 -160 0
36 -167 0
36 -168 0
167 -167 0
168 -168 0
55 -175 0
55 -176 0
175 -175 0
176 -176 0
74 -183 0
74 -184 0
183 -183 0
184 -184 0
93 -191 0
93 -192 0
191 -191 0
192 -192 0
112 -199 0
112 -200 0
199 -199 0
200 -200 0
131 -207 0
131 -208 0
207 -207 0
208 -208 0
150 -215 0
150 -216 0
215 -215 0
216 -216 0
18 -159 0
18 -160 0
159 -159 0
160 -160 0
37 -167 0
37 -168 0
167 -167 0
168 -168 0
56 -175 0
56 -176 0
175 -175 0
176 -176 0
75 -183 0
75 -184 0
183 -183 0
184 -184 0
94 -191 0
94 -192 0
191 -191 0
192 -192 0
113 -199 0
113 -200 0
199 -199 0
200 -200 0
132 -207 0
132 -208 0
207 -207 0
208 -208 0
151 -215 0
151 -216 0
215 -215 0
216 -216 0
19 -159 0
19 -160 0
159 -159 0
160 -160 0
38 -167 0
38 -168 0
167 -167 0
168 -168 0
57 -175 0
57 -176 0
175 -175 0
176 -176 0
76 -183 0
76 -184 0
183 -183 0
184 -184 0
95 -191 0
95 -192 0
191 -191 0
192 -192 0
114 -199 0
114 -200 0
199 -199 0
200 -200 0
133 -207 0
133 -208 0
207 -207 0
208 -208 0
152 -215 0
152 -216 0
215 -215 0
216 -216 0
-299 159 0
299 -159 0
-300 160 0
299 -160 0
-299 -159 0
-300 -160 0
-307 159 299 0
307 -159 0
307 -299 0
-308 160 300 0
308 -160 0
308 -300 0
-307 -167 0
-308 -168 0
-315 167 307 0
315 -167 0
315 -307 0
-316 168 308 0
316 -168 0
316 -308 0
-315 -175 0
-316 -176 0
-323 175 315 0
323 -175 0
323 -315 0
-324 176 316 0
324 -176 0
324 -316 0
-323 -183 0
-324 -184 0
-331 183 323 0
331 -183 0
331 -323 0
-332 184 324 0
332 -184 0
332 -324 0
-331 -191 0
-332 -192 0
-339 191 331 0
339 -191 0
339 -331 0
-340 192 332 0
340 -192 0
340 -332 0
-339 -199 0
-340 -200 0
-347 199 339 0
347 -199 0
347 -339 0
-348 200 340 0
348 -200 0
348 -340 0
-347 -207 0
-348 -208 0
-355 207 347 0
355 -207 0
355 -347 0
-356 208 348 0
356 -208 0
356 -348 0
-355 -215 0
-356 -216 0
355 0
356 0
